77 4 87 150 3 109 35 62 138 181 175 158 11 196 6 42 121 197 65 146 86 116 185 155 37 45 9 34 129 156 52 126 124 5 1 43 72 104 88 107 122 176 123 199 142 117 16 192 70 103 100 60 0 137 76 113 26 171 178 82 7 27 15 2 190 115 51 17 50 13 168 105 141 186 90 194 73 165 32 95 99 48 166 89 91 153 31 67 111 79 145 198 74 55 130 157 169 96 23 71 80 195 112 57 180 140 191 97 36 114 64 68 167 143 85 44 47 182 135 106 24 193 159 28 148 119 93 94 83 160 147 49 20 10 81 144 183 131 12 179 134 18 132 33 19 139 108 151 59 154 133 25 98 118 161 38 63 56 75 174 84 102 170 61 164 173 41 30 184 22 69 78 163 110 46 39 152 125 128 53 189 14 21 187 101 58 54 149 66 188 172 136 40 92 120 127 8 177 29 162 

